NAME : XML100_1221_12
DIMENSION : 101
NB_CLUSTERS : 4
CLUSTERING_ALG : DBSCAN
CLUSTERING_PARAMS : eps(118), minSamples(3)
CLUSTERS
1 0
2 1 2 4 6 11 16 22 24 26 30 32 33 42 49 50 54 58 66 68 76 81 91 95 97 100
3 3 7 9 12 13 15 17 20 25 27 28 29 34 35 37 39 41 43 44 45 46 47 48 52 53 55 56 60 61 62 63 64 67 69 70 71 72 73 74 75 77 78 79 82 83 84 85 87 88 89 90 92 93 94 96 98 99
4 5 8 10 14 18 19 21 23 31 36 38 40 51 57 59 65 80 86
EOF